8
[-1, 216, 261, 151, 226, 60, 159, 189, 
216, -1, 218, 280, 160, 173, 59, 201, 
261, 218, -1, 400, 362, 203, 195, 376, 
151, 280, 400, -1, 187, 200, 243, 117, 
226, 160, 362, 187, -1, 224, 166, 70, 
60, 173, 203, 200, 224, -1, 114, 206, 
159, 59, 195, 243, 166, 114, -1, 187, 
189, 201, 376, 117, 70, 206, 187, -1]